
Value of objective function: 2.21074452

Actual values of the variables:
pL1_div_from_law          2.21074
comp_pos0                0.313354
comp_neg0                       0
comp_pos1                 0.28884
comp_neg1                       0
comp_pos2                0.196014
comp_neg2                       0
comp_pos3                0.138095
comp_neg3                       0
comp_pos4                 0.20057
comp_neg4                       0
comp_pos5              0.00261596
comp_neg5                       0
comp_pos6                0.474313
comp_neg6                       0
comp_pos7                0.218056
comp_neg7                       0
comp_pos8                0.223263
comp_neg8                       0
comp_pos9               0.0414489
comp_neg9                       0
comp_pos10               0.114174
comp_neg10                      0
comp_pos11                      0
comp_neg11                      0
comp_pos12                      0
comp_neg12                      0
comp_pos13                      0
comp_neg13                      0
z_c0_t0               1.32138e+10
p0_c0_t0              1.17764e+09
p1_c0_t0              1.05272e+08
p2_c0_t0              1.57013e+10
p3_c0_t0              3.70205e+08
diff0                 4.14061e+09
normdiff0                0.313354
z_c0_t1               1.47752e+10
p0_c0_t1              1.01308e+09
p1_c0_t1              1.16885e+08
p2_c0_t1              1.74655e+10
p3_c0_t1              4.47391e+08
diff1                 4.26767e+09
normdiff1                 0.28884
z_c1_t0               1.65566e+10
p0_c1_t0              1.19068e+09
p1_c1_t0              1.35265e+08
p2_c1_t0              1.83137e+10
p3_c1_t0              1.62227e+08
diff2                 3.24532e+09
normdiff2                0.196014
z_c1_t1               1.94959e+10
p0_c1_t1              1.18797e+09
p1_c1_t1              1.90527e+08
p2_c1_t1              2.06498e+10
p3_c1_t1              1.59818e+08
diff3                 2.69228e+09
normdiff3                0.138095
z_c2_t0               7.24754e+09
p0_c2_t0              4.06248e+08
p1_c2_t0              5.51971e+07
p2_c2_t0              8.09633e+09
p3_c2_t0              1.43406e+08
diff4                 1.45364e+09
normdiff4                 0.20057
z_c2_t1               7.97123e+09
p0_c2_t1              3.26491e+08
p1_c2_t1              6.38795e+07
p2_c2_t1              7.49337e+09
p3_c2_t1              1.08336e+08
diff5                 2.08524e+07
normdiff5              0.00261596
z_c3_t0               1.22612e+10
p0_c3_t0              7.34999e+08
p1_c3_t0              9.43659e+07
p2_c3_t0              1.66407e+10
p3_c3_t0              6.06797e+08
diff6                 5.81564e+09
normdiff6                0.474313
z_c3_t1               1.42798e+10
p0_c3_t1              8.23042e+08
p1_c3_t1              9.56852e+07
p2_c3_t1              1.60073e+10
p3_c3_t1              4.67541e+08
diff7                  3.1138e+09
normdiff7                0.218056
z_c4_t0               7.97197e+09
p0_c4_t0               3.2441e+08
p1_c4_t0              1.05596e+08
p2_c4_t0              9.20668e+09
p3_c4_t0              1.15129e+08
diff8                 1.77985e+09
normdiff8                0.223263
z_c4_t1                8.9819e+09
p0_c4_t1                3.321e+08
p1_c4_t1              9.62536e+07
p2_c4_t1              8.85189e+09
p3_c4_t1              7.39522e+07
diff9                  3.7229e+08
normdiff9               0.0414489
z_c5_t0               1.00642e+10
p0_c5_t0              5.72086e+08
p1_c5_t0              8.82169e+07
p2_c5_t0              1.05026e+10
p3_c5_t0              5.03208e+07
diff10                1.14907e+09
normdiff10               0.114174
z_c5_t1                1.2016e+10
p0_c5_t1              4.17895e+08
p1_c5_t1              8.82549e+07
p2_c5_t1              1.13821e+10
p3_c5_t1              1.27799e+08
diff11                          0
normdiff11                      0
z_c6_t0               1.81204e+10
p0_c6_t0              1.04458e+09
p1_c6_t0              1.12562e+08
p2_c6_t0              1.67989e+10
p3_c6_t0              1.64267e+08
diff12                          0
normdiff12                      0
z_c6_t1               2.06345e+10
p0_c6_t1              1.11198e+09
p1_c6_t1              1.03172e+08
p2_c6_t1              1.93108e+10
p3_c6_t1              1.08551e+08
diff13                          0
normdiff13                      0
